(set-option :produce-models true)
(set-logic QF_UF)
(declare-fun p5() Bool)
(declare-fun p12() Bool)
(declare-fun p0() Bool)
(declare-fun p2() Bool)
(declare-fun p10() Bool)
(declare-fun p7() Bool)
(declare-fun p4() Bool)
(declare-fun p8() Bool)
(declare-fun p14() Bool)
(declare-fun p11() Bool)
(declare-fun p6() Bool)
(declare-fun p3() Bool)
(declare-fun p1() Bool)
(declare-fun p9() Bool)
(declare-fun p13() Bool)
(assert
(and (or (not p5) p12 (not p0)) (or p2 (not p10) (not p7)) (or p12 (not p4) p10) (or (not p12) (not p2) (not p12)) (or p8 p10 p0) (or (not p14) (not p12) (not p7)) (or (not p7) p11 (not p7)) (or (not p7) (not p5) (not p8)) (or (not p6) (not p2) p3) (or p1 (not p11) p6) (or p2 p5 (not p8)) (or p6 (not p11) (not p9)) (or (not p7) (not p6) p3) (or p2 p8 p10) (or (not p13) p2 (not p3)) (or (not p11) p10 p7) (or p11 p3 (not p7)) (or p2 p14 p13) (or p10 (not p5) p7) (or (not p1) p2 p5) (or p9 p5 (not p11)) (or (not p0) (not p3) (not p1)) (or (not p1) (not p11) p1) (or (not p2) (not p3) (not p1)) (or (not p14) p7 (not p13)) (or (not p10) (not p8) (not p1)) (or (not p1) (not p5) p13) (or (not p2) (not p13) p9) (or (not p0) p11 p6) (or (not p8) p14 p12) (or (not p6) (not p1) p4) (or p12 p0 p8) (or p4 p3 (not p4)) (or (not p10) (not p0) p10) (or p6 (not p0) p6) (or (not p3) (not p5) (not p3)) (or p12 p8 p8) (or p8 p11 p9) (or p6 p12 (not p4)) (or (not p4) p11 p0) (or p2 p1 (not p7)) (or (not p2) (not p5) p7) (or p4 (not p11) p9) (or (not p0) (not p9) p4) (or p6 p5 p12) (or p3 p5 p7) (or p4 p0 p6) (or p0 p5 (not p7)) (or (not p11) (not p6) p13) (or (not p6) p8 p14) (or p9 p7 p10) (or p1 (not p3) (not p11)) (or (not p2) p4 (not p9)) (or p4 (not p11) (not p12)) (or (not p10) p4 (not p3)) (or (not p8) p8 (not p13)) (or (not p1) (not p9) (not p5)) (or p9 p11 p10) (or (not p0) (not p1) p14) (or p10 (not p2) (not p1)) (or (not p1) p1 (not p9)) (or (not p9) p0 p4) (or (not p13) (not p0) p4) (or p12 (not p9) p14) (or p14 (not p1) p10) (or p14 (not p5) p0) (or (not p8) (not p8) (not p2)) (or (not p7) (not p10) p12) (or (not p5) (not p13) p6))
)
(check-sat)
(get-model)
